
Welcome to IBM(R) ILOG(R) CPLEX(R) Interactive Optimizer 22.1.1.0
  with Simplex, Mixed Integer & Barrier Optimizers
5725-A06 5725-A29 5724-Y48 5724-Y49 5724-Y54 5724-Y55 5655-Y21
Copyright IBM Corp. 1988, 2022.  All Rights Reserved.

Type 'help' for a list of available commands.
Type 'help' followed by a command name for more
information on commands.

CPLEX> Selected objective sense:  MINIMIZE
Selected objective  name:  00000000
Selected RHS        name:  RHS1
Selected bound      name:  BOUND
Problem 'ee.mps' read.
Read time = 0.03 sec. (3.17 ticks)
CPLEX> New value for time limit in seconds: 7200
CPLEX> New value for parallel optimization mode: -1
CPLEX> New value for default parallel thread count: 40
CPLEX> New value for mixed integer optimality gap tolerance: 1e-13
CPLEX> Version identifier: 22.1.1.0 | 2022-11-28 | 9160aff4d
CPXPARAM_Threads                                 40
CPXPARAM_Parallel                                -1
CPXPARAM_TimeLimit                               7200
CPXPARAM_MIP_Tolerances_MIPGap                   1e-13
Found incumbent of value 0.000000 after 0.00 sec. (0.31 ticks)
Tried aggregator 2 times.
MIP Presolve eliminated 181 rows and 2745 columns.
MIP Presolve modified 6090 coefficients.
Aggregator did 713 substitutions.
Reduced MIP has 3635 rows, 7835 columns, and 28930 nonzeros.
Reduced MIP has 7835 binaries, 0 generals, 0 SOSs, and 0 indicators.
Presolve time = 0.07 sec. (68.89 ticks)
Probing time = 0.03 sec. (5.32 ticks)
Tried aggregator 1 time.
Detecting symmetries...
Reduced MIP has 3635 rows, 7835 columns, and 28930 nonzeros.
Reduced MIP has 7835 binaries, 0 generals, 0 SOSs, and 0 indicators.
Presolve time = 0.03 sec. (22.00 ticks)
Probing time = 0.02 sec. (5.12 ticks)
Clique table members: 18781.
MIP emphasis: balance optimality and feasibility.
MIP search method: dynamic search.
Parallel mode: opportunistic, using up to 40 threads.
Root relaxation solution time = 0.13 sec. (122.55 ticks)

        Nodes                                         Cuts/
   Node  Left     Objective  IInf  Best Integer    Best Bound    ItCnt     Gap

*     0+    0                            0.0000  -1.54000e+13              --- 
*     0+    0                      -5.78000e+12  -1.54000e+13           166.44%
*     0+    0                      -6.98000e+12  -1.54000e+13           120.63%
      0     0  -1.53900e+13    67  -6.98000e+12  -1.53900e+13     2529  120.49%
*     0+    0                      -1.53900e+13  -1.53900e+13             0.00%
      0     0  -1.53900e+13   131  -1.53900e+13      Cuts: 63     3280    0.00%
*     0+    0                      -1.53900e+13  -1.53900e+13             0.00%
      0     0  -1.53900e+13   156  -1.53900e+13      Cuts: 54     3516    0.00%
*     0+    0                      -1.53900e+13  -1.53900e+13             0.00%
      0     2  -1.53900e+13   156  -1.53900e+13  -1.53900e+13     3516    0.00%
Elapsed time = 2.06 sec. (923.14 ticks, tree = 0.02 MB, solutions = 11)
    235    74    infeasible        -1.53900e+13  -1.53900e+13    24455    0.00%
    864   223  -1.53900e+13    79  -1.53900e+13  -1.53900e+13    74905    0.00%
   1339   227  -1.53900e+13    40  -1.53900e+13  -1.53900e+13    76873    0.00%
   1753   456    infeasible        -1.53900e+13  -1.53900e+13   141960    0.00%
   2071   812    infeasible        -1.53900e+13  -1.53900e+13   236823    0.00%
   2435   931  -1.53900e+13   106  -1.53900e+13  -1.53900e+13   285779    0.00%
   2688  1014  -1.53900e+13   141  -1.53900e+13  -1.53900e+13   317418    0.00%
   2998   887    infeasible        -1.53900e+13  -1.53900e+13   275481    0.00%
   3255  1090  -1.53900e+13   218  -1.53900e+13  -1.53900e+13   353584    0.00%
   4040  1355  -1.53900e+13   133  -1.53900e+13  -1.53900e+13   486315    0.00%
Elapsed time = 7.91 sec. (4026.13 ticks, tree = 3.89 MB, solutions = 11)
   4573  1737        cutoff        -1.53900e+13  -1.53900e+13   719359    0.00%
   5037  2229  -1.53900e+13   128  -1.53900e+13  -1.53900e+13  1079661    0.00%
   5551  2450  -1.53900e+13    66  -1.53900e+13  -1.53900e+13  1128374    0.00%
   5873  2859  -1.53900e+13   312  -1.53900e+13  -1.53900e+13  1786302    0.00%
   6149  2839  -1.53900e+13   132  -1.53900e+13  -1.53900e+13  1715167    0.00%
   6547  2986  -1.53900e+13   182  -1.53900e+13  -1.53900e+13  2034527    0.00%
   7049  3102        cutoff        -1.53900e+13  -1.53900e+13  2241541    0.00%
   7545  2971    infeasible        -1.53900e+13  -1.53900e+13  1997764    0.00%
   8170  3168        cutoff        -1.53900e+13  -1.53900e+13  2330347    0.00%
   8614  3364        cutoff        -1.53900e+13  -1.53900e+13  2644225    0.00%
Elapsed time = 23.77 sec. (13578.62 ticks, tree = 13.40 MB, solutions = 11)
   9084  3284  -1.53900e+13   195  -1.53900e+13  -1.53900e+13  2524277    0.00%
   9375  3673  -1.53900e+13    93  -1.53900e+13  -1.53900e+13  3035330    0.00%
   9565  3611        cutoff        -1.53900e+13  -1.53900e+13  2966936    0.00%
   9645  3826  -1.53900e+13    88  -1.53900e+13  -1.53900e+13  3275634    0.00%
   9725  3826  -1.53900e+13   138  -1.53900e+13  -1.53900e+13  3288789    0.00%

Performing restart 1

Repeating presolve.
Tried aggregator 2 times.
MIP Presolve eliminated 460 rows and 1536 columns.
MIP Presolve modified 1849 coefficients.
Aggregator did 452 substitutions.
Reduced MIP has 2683 rows, 5773 columns, and 21141 nonzeros.
Reduced MIP has 5773 binaries, 0 generals, 0 SOSs, and 0 indicators.
Presolve time = 0.08 sec. (70.86 ticks)
Tried aggregator 1 time.
MIP Presolve eliminated 33 rows and 39 columns.
Reduced MIP has 2650 rows, 5727 columns, and 21002 nonzeros.
Reduced MIP has 5727 binaries, 0 generals, 0 SOSs, and 0 indicators.
Presolve time = 0.03 sec. (24.03 ticks)
Represolve time = 0.21 sec. (139.33 ticks)
   9735     0  -1.53900e+13   239  -1.53900e+13      Cuts: 40  4109961    0.00%
   9735     0  -1.53900e+13   251  -1.53900e+13      Cuts: 47  4110372    0.00%
   9735     0  -1.53900e+13   266  -1.53900e+13      Cuts: 25  4110655    0.00%
   9735     0  -1.53900e+13   341  -1.53900e+13      Cuts: 45  4111012    0.00%
   9735     0  -1.53900e+13   305  -1.53900e+13      Cuts: 26  4111594    0.00%
   9735     0  -1.53900e+13   267  -1.53900e+13      Cuts: 44  4111787    0.00%
   9735     0  -1.53900e+13   326  -1.53900e+13      Cuts: 30  4111993    0.00%
   9735     0  -1.53900e+13   330  -1.53900e+13      Cuts: 26  4112186    0.00%
   9735     0  -1.53900e+13   364  -1.53900e+13      Cuts: 27  4112364    0.00%
   9735     0  -1.53900e+13   342  -1.53900e+13      Cuts: 11  4112421    0.00%
   9735     0  -1.53900e+13   364  -1.53900e+13      Cuts: 21  4112498    0.00%
   9735     0  -1.53900e+13   342  -1.53900e+13      Cuts: 19  4112668    0.00%
   9735     0  -1.53900e+13   372  -1.53900e+13      Cuts: 24  4112809    0.00%
   9735     0  -1.53900e+13   373  -1.53900e+13      Cuts: 17  4113224    0.00%
   9735     0  -1.53900e+13   370  -1.53900e+13      Cuts: 22  4113475    0.00%
   9735    14        cutoff        -1.53900e+13  -1.53900e+13  4118492    0.00%
  10784    76  -1.53900e+13   281  -1.53900e+13  -1.53900e+13  4135107    0.00%
  12321    54  -1.53900e+13   169  -1.53900e+13  -1.53900e+13  4181337    0.00%
  13740    84        cutoff        -1.53900e+13  -1.53900e+13  4195094    0.00%
  15146   169        cutoff        -1.53900e+13  -1.53900e+13  4275214    0.00%
Elapsed time = 41.08 sec. (26114.73 ticks, tree = 2.42 MB, solutions = 26)
  15540   277  -1.53900e+13   120  -1.53900e+13  -1.53900e+13  4311642    0.00%

Clique cuts applied:  15
Cover cuts applied:  462
Flow cuts applied:  1
Mixed integer rounding cuts applied:  31
Zero-half cuts applied:  68
Lift and project cuts applied:  1
Gomory fractional cuts applied:  19

Root node processing (before b&c):
  Real time             =    1.13 sec. (909.55 ticks)
Parallel b&c, 40 threads:
  Real time             =   39.98 sec. (26300.84 ticks)
  Sync time (average)   =    5.94 sec.
  Wait time (average)   =    0.12 sec.
                          ------------
Total (root+branch&cut) =   41.11 sec. (27210.39 ticks)

Solution pool: 26 solutions saved.

MIP - Integer optimal solution:  Objective = -1.5389999389e+13
Solution time =   41.24 sec.  Iterations = 4424696  Nodes = 15546
Deterministic time = 27210.42 ticks  (659.82 ticks/sec)

CPLEX> Solution 'p27' written to file 'ee.sol'.
CPLEX> 